AsNCa3-black                            
   1.00000000000000     
     6.7277114444613177    0.0000000000000000    0.0000000000000000
     0.0000000000000000    6.7404496739393993    0.0000000000000000
     0.0000000000000000    0.0000000000000000    9.5565743358256867
   As   N    Ca
     4     4    12
Direct
  0.9975195241987080  0.4804377381065521  0.2500000000000000
  0.0024804798012923  0.5195622618934479  0.7500000000000000
  0.4975195241987080  0.0195622618934479  0.7500000000000000
  0.5024804758012920  0.9804377381065521  0.2500000000000000
  0.0000000000000000  0.0000000000000000  0.5000000000000000
  0.5000000000000000  0.5000000000000000  0.5000000000000000
  0.0000000000000000  0.0000000000000000  0.0000000000000000
  0.5000000000000000  0.5000000000000000  0.0000000000000000
  0.2150116318450301  0.2849939513859141  0.5209744096950146
  0.7849883531549722  0.7150060786140813  0.4790255903049854
  0.7150116468450278  0.2150060486140859  0.4790255903049854
  0.2849883531549651  0.7849939213859187  0.5209744096950146
  0.7849883531549722  0.7150060786140813  0.0209744096950146
  0.2150116318450301  0.2849939513859141  0.9790255903049854
  0.2849883531549651  0.7849939213859187  0.9790255903049854
  0.7150116468450278  0.2150060486140859  0.0209744096950146
  0.9597157284718634  0.9930682940982365  0.7500000000000000
  0.0402842945281421  0.0069317219017648  0.2500000000000000
  0.4597156984718609  0.5069317059017635  0.2500000000000000
  0.5402842715281366  0.4930682640982340  0.7500000000000000
 
  0.00000000E+00  0.00000000E+00  0.00000000E+00
  0.00000000E+00  0.00000000E+00  0.00000000E+00
  0.00000000E+00  0.00000000E+00  0.00000000E+00
  0.00000000E+00  0.00000000E+00  0.00000000E+00
  0.00000000E+00  0.00000000E+00  0.00000000E+00
  0.00000000E+00  0.00000000E+00  0.00000000E+00
  0.00000000E+00  0.00000000E+00  0.00000000E+00
  0.00000000E+00  0.00000000E+00  0.00000000E+00
  0.00000000E+00  0.00000000E+00  0.00000000E+00
  0.00000000E+00  0.00000000E+00  0.00000000E+00
  0.00000000E+00  0.00000000E+00  0.00000000E+00
  0.00000000E+00  0.00000000E+00  0.00000000E+00
  0.00000000E+00  0.00000000E+00  0.00000000E+00
  0.00000000E+00  0.00000000E+00  0.00000000E+00
  0.00000000E+00  0.00000000E+00  0.00000000E+00
  0.00000000E+00  0.00000000E+00  0.00000000E+00
  0.00000000E+00  0.00000000E+00  0.00000000E+00
  0.00000000E+00  0.00000000E+00  0.00000000E+00
  0.00000000E+00  0.00000000E+00  0.00000000E+00
  0.00000000E+00  0.00000000E+00  0.00000000E+00
