Fully automatic mesh
0              ! 0 -> automatic generation scheme 
Auto           ! fully automatic
  35           ! length (R_k)
