AsNCa3-yellow                           
   1.00000000000000     
     7.9165560183520789    0.0000000000000000    0.0000000000000000
     0.0000000000000000    3.9929219844398465    0.0000000000000000
     0.0000000000000000    0.0000000000000000   13.6808644131219292
   As   N    Ca
     4     4    12
Direct
  0.4141084253985738  0.2500000000000000  0.6671442305551238
  0.5858915746014262  0.7500000000000000  0.3328557694448762
  0.0858915746014262  0.7500000000000000  0.1671442305551238
  0.9141084253985738  0.2500000000000000  0.8328557694448762
  0.1465092874312361  0.2500000000000000  0.4387505775627716
  0.8534906985687627  0.7500000000000000  0.5612493924372259
  0.3534906985687627  0.7500000000000000  0.9387506075627741
  0.6465093014312373  0.2500000000000000  0.0612494224372284
  0.1770581413127559  0.2500000000000000  0.0048988555864469
  0.8229418736872418  0.7500000000000000  0.9951011174135544
  0.3229418736872418  0.7500000000000000  0.5048988825864456
  0.6770581263127582  0.2500000000000000  0.4951011474135569
  0.2922241618384618  0.2500000000000000  0.2926808090358648
  0.7077758091615323  0.7500000000000000  0.7073192209641377
  0.2077758381615382  0.7500000000000000  0.7926807790358623
  0.7922241908384677  0.2500000000000000  0.2073191909641352
  0.0236477160444011  0.2500000000000000  0.5997972916977261
  0.9763522809555951  0.7500000000000000  0.4002027083022739
  0.4763522809556022  0.7500000000000000  0.0997972916977261
  0.5236477190444049  0.2500000000000000  0.9002027083022739
 

