AsNCa3-orthorombic                      
   1.00000000000000     
     6.7580408731249362    0.0000000000000000    0.0000000000000000
     0.0000000000000000    6.7250557900332080    0.0000000000000000
     0.0000000000000000    0.0000000000000000    9.5226315740136371
   As   N    Ca
     4     4    12
Direct
  0.4992516487018506  0.9966080366152710  0.2491480333451435
  0.0001617292444962  0.4968046029366207  0.2493717350014464
  0.4999115393417242  0.9995627817176924  0.7505181773566676
  0.9989851391085551  0.4991500462353926  0.7499187051255660
  0.9997593829566469  0.9980743634088540  0.9996420166625342
  0.4997556002364689  0.4981287700442465  0.9996797892148734
  0.9995954875030932  0.9979964287500351  0.4997110399707481
  0.4995814757682524  0.4980519713990716  0.4997273365384700
  0.2380317949978519  0.2598342589798506  0.0220499777927827
  0.7616817812996075  0.7364382937779581  0.9769587335436469
  0.2618822631736322  0.7602204115118312  0.0197020533032202
  0.7375710503261246  0.2360499065110560  0.9798728299942994
  0.9581200007552937  0.9957919946267921  0.2497336755646558
  0.5416111536438493  0.5014902869638718  0.2496826790762228
  0.2670334692258578  0.2303879832963318  0.4773170784639404
  0.7321386582834890  0.7656526797924101  0.5221895765833793
  0.2315179034631640  0.7299223714183682  0.4803022152960708
  0.7669254806839945  0.2657414351160625  0.5190930870731307
  0.0416382472046379  0.0012577379078564  0.7496694237984585
  0.4579040540182930  0.4953954956882782  0.7497412216121404
 
  
