AsNCa3-2H                               
   1.00000000000000     
     6.6294969521177869    0.0000000000000000    0.0000000000000000
    -3.3147468689072563    5.7413135790965075    0.0000000000000000
     0.0000000000000000    0.0000000000000000    5.8774985350970539
   As   N    Ca
     2     2     6
Direct
  0.6666666651404114  0.3333333863540702  0.2500000273156857
  0.3333333351701526  0.6666666283517984  0.7500000134463249
  0.0000000755941372  0.9999999610813859  0.5000000161388272
  0.9999999475910428  0.0000000527331707  0.9999999763237213
  0.3137628835006225  0.1568836794840749  0.7499999628419047
  0.6862370747804505  0.8431162837831749  0.2500000180868938
  0.8431162401193149  0.1568792404409578  0.7500000212267111
  0.1568837607627884  0.8431207777608378  0.2500000173755339
  0.8431208286625562  0.6862370904136910  0.7500000269216827
  0.1568791616785177  0.3137629045968424  0.2499999803227055
 
 
