AsNCa3-4H                               
   1.00000000000000     
     6.7083147767129034    0.0000000000000000    0.0000000000000000
    -3.3541549599152471    5.8095731282329712    0.0000000000000000
     0.0000000000000000    0.0000000000000000   11.3027754566063443
   As   N    Ca
     4     4    12
Direct
  0.9999999621681042  0.0000001168674046  0.5000000744719060
  0.0000001113783128  0.9999999423216508  0.0000001300835848
  0.3333330264231051  0.6666671010863610  0.7500001568988424
  0.6666671585464456  0.3333330348521173  0.2500000855702282
  0.3333337533942711  0.6666665106457828  0.3834079803784647
  0.6666665815026462  0.3333331963629433  0.6165917263280534
  0.6666664796554045  0.3333328451621398  0.8834083862403261
  0.3333327847709242  0.6666665296169896  0.1165917279868651
  0.4999994216651586  0.9999993277137094  0.4999999988831760
  0.0000007175603187  0.5000006387435221  0.5000000060913266
  0.4999999509930717  0.5000001476576585  0.5000004760297116
  0.5000006111542064  0.0000007676921143  0.9999999264184964
  0.9999992909048672  0.4999994268006063  0.9999999573967315
  0.5000000938624609  0.4999999514901887  0.0000004370697297
  0.1768364023707178  0.8231636263789923  0.2500004904843323
  0.8231635899975274  0.1768364442473001  0.7500004080479954
  0.1768369363685238  0.3536731430467697  0.2499994617217993
  0.8231634217342432  0.6463270591134176  0.7499995141687137
  0.6463269103398872  0.8231633990190304  0.2499996568397407
  0.3536727772097805  0.1768368111812748  0.7499993828899960
 
 
