AsNCa3-super_cubic                      
   1.00000000000000     
     9.5347125281922107    0.0000000000000000    0.0000000000000000
     0.0000000000000000    9.5347125281922107    0.0000000000000000
     0.0000000000000000    0.0000000000000000    9.5347125281922107
   As   N    Ca
     8     8    24
Direct
  0.2582758922918913  0.2493357534072445  0.2664941639904157
  0.2582030742758690  0.2513680265707734  0.7685345713704521
  0.2581761157893112  0.7516030319356020  0.2687127393036093
  0.2583318004408781  0.7491787950768938  0.7660449759435082
  0.7582075129017483  0.2694799680486142  0.2510981540678046
  0.7581610338358900  0.2670689275112466  0.7484621868690624
  0.7581403671395037  0.7674704783980459  0.2486217600788265
  0.7582822648883365  0.7694364732564551  0.7505187255473871
  0.0082729471715979  0.0093802567494805  0.0085467310556169
  0.0083023380201013  0.0094252214584145  0.5085735615482889
  0.0082321475168072  0.5093847578330255  0.0085350689986257
  0.0082915818833627  0.5094504540899507  0.5085034711958585
  0.5082563806957552  0.0093008067709732  0.0086736560415304
  0.5081278868839263  0.0093697896784661  0.5087134915667875
  0.5082940929966639  0.5093625172952443  0.0086397893247252
  0.5081624323767571  0.5093968103309194  0.5086668932692007
  0.2582507808282628  0.9915066463390474  0.9844227909514629
  0.2582069125234554  0.0326336741599462  0.5260537386838067
  0.2582271620109893  0.5337524935958697  0.0258493710426606
  0.2581749753206140  0.4926039697530342  0.4845090443578215
  0.7582955759373604  0.0269281689231420  0.0326437059224887
  0.7582157749785878  0.9862853230135542  0.4913151730013894
  0.7582941209419474  0.4846184364925250  0.9911875550520364
  0.7582421889213080  0.5261818342905755  0.5324099004949545
  0.0297637481303568  0.2593544770907812  0.0407763459601398
  0.9878543146290042  0.2593596331214485  0.4765186546326987
  0.9864315012545291  0.7594057108057299  0.9765624422352062
  0.0292131092083352  0.7594416787816058  0.5406503082893366
  0.4867376145027862  0.2592453622704838  0.0402859094235666
  0.5287742584666901  0.2593888932283122  0.4771064864335983
  0.5304859104861848  0.7593079332905432  0.9770479419283404
  0.4874908724375402  0.7593312117761286  0.5403046642266460
  0.0295859492977826  0.9772920615932321  0.2584976392202165
  0.9869442861850430  0.0416943366712488  0.7585036249711479
  0.9868637004998675  0.5417043222027402  0.2584601172073491
  0.0296681558732317  0.4774082512161257  0.7584462689067095
  0.4866026286352039  0.9775649630309502  0.2587572770186028
  0.5295562436720544  0.0409471675094935  0.7587582747014778
  0.5296128329185024  0.5409433539169015  0.2586808004600201
  0.4865169974974606  0.4777425646209963  0.7587297796185837
 
  0.00000000E+00  0.00000000E+00  0.00000000E+00
  0.00000000E+00  0.00000000E+00  0.00000000E+00
  0.00000000E+00  0.00000000E+00  0.00000000E+00
  0.00000000E+00  0.00000000E+00  0.00000000E+00
  0.00000000E+00  0.00000000E+00  0.00000000E+00
  0.00000000E+00  0.00000000E+00  0.00000000E+00
  0.00000000E+00  0.00000000E+00  0.00000000E+00
  0.00000000E+00  0.00000000E+00  0.00000000E+00
  0.00000000E+00  0.00000000E+00  0.00000000E+00
  0.00000000E+00  0.00000000E+00  0.00000000E+00
  0.00000000E+00  0.00000000E+00  0.00000000E+00
  0.00000000E+00  0.00000000E+00  0.00000000E+00
  0.00000000E+00  0.00000000E+00  0.00000000E+00
  0.00000000E+00  0.00000000E+00  0.00000000E+00
  0.00000000E+00  0.00000000E+00  0.00000000E+00
  0.00000000E+00  0.00000000E+00  0.00000000E+00
  0.00000000E+00  0.00000000E+00  0.00000000E+00
  0.00000000E+00  0.00000000E+00  0.00000000E+00
  0.00000000E+00  0.00000000E+00  0.00000000E+00
  0.00000000E+00  0.00000000E+00  0.00000000E+00
  0.00000000E+00  0.00000000E+00  0.00000000E+00
  0.00000000E+00  0.00000000E+00  0.00000000E+00
  0.00000000E+00  0.00000000E+00  0.00000000E+00
  0.00000000E+00  0.00000000E+00  0.00000000E+00
  0.00000000E+00  0.00000000E+00  0.00000000E+00
  0.00000000E+00  0.00000000E+00  0.00000000E+00
  0.00000000E+00  0.00000000E+00  0.00000000E+00
  0.00000000E+00  0.00000000E+00  0.00000000E+00
  0.00000000E+00  0.00000000E+00  0.00000000E+00
  0.00000000E+00  0.00000000E+00  0.00000000E+00
  0.00000000E+00  0.00000000E+00  0.00000000E+00
  0.00000000E+00  0.00000000E+00  0.00000000E+00
  0.00000000E+00  0.00000000E+00  0.00000000E+00
  0.00000000E+00  0.00000000E+00  0.00000000E+00
  0.00000000E+00  0.00000000E+00  0.00000000E+00
  0.00000000E+00  0.00000000E+00  0.00000000E+00
  0.00000000E+00  0.00000000E+00  0.00000000E+00
  0.00000000E+00  0.00000000E+00  0.00000000E+00
  0.00000000E+00  0.00000000E+00  0.00000000E+00
  0.00000000E+00  0.00000000E+00  0.00000000E+00
