k-points 
 30
line
reciprocal
   0.0000000000     0.0000000000     0.0000000000     G
   0.5000000000     0.5000000000     0.0000000000     M

   0.5000000000     0.5000000000     0.0000000000     M
   0.5000000000     0.0000000000     0.0000000000     X

   0.5000000000     0.0000000000     0.0000000000     X
   0.0000000000     0.0000000000     0.0000000000     G

   0.0000000000     0.0000000000     0.0000000000     G
   0.0000000000     0.0000000000     0.5000000000     Z

   0.0000000000     0.0000000000     0.5000000000     Z
   0.5000000000     0.0000000000     0.5000000000     A

   0.5000000000     0.0000000000     0.5000000000     A
   0.5000000000     0.5000000000     0.5000000000     R

   0.5000000000     0.5000000000     0.5000000000     R
   0.0000000000     0.0000000000     0.5000000000     Z

