AsNCa3-tetragonal                       
   1.00000000000000     
     6.7249684888785195    0.0000000000000000    0.0000000000000000
     0.0000000000000000    6.7238375693452177    0.0000000000000000
     0.0000000000000000    0.0000000000000000    9.5746436458272921
   As   N    Ca
     4     4    12
Direct
  0.4981288796140717  0.9968334859638972  0.2502952208198863
  0.9962658115121314  0.4986683437938950  0.2497886129036075
  0.4961639983813058  0.9986887909783491  0.7493973334970647
  0.9979476206072988  0.4969122619931596  0.7497475887073364
  0.9970490937387311  0.9978022710776955  0.9997986126222642
  0.4970199255027907  0.4977242485154889  0.9997806058810568
  0.9970535452960121  0.9978052471324474  0.4998130157266161
  0.4970373781701412  0.4977640440028068  0.4998158405469653
  0.2812412312476624  0.2134831138807627  0.0083185214796870
  0.7130935527366020  0.7814879695541208  0.9914421837633469
  0.2132624449511340  0.7136948463784023  0.0000953499172027
  0.7813585772907174  0.2825016893709886  0.9996935967779734
  0.9871061027587018  0.9888231196396404  0.2495542009100902
  0.5066203698096885  0.5066490194969617  0.2499467418058288
  0.2140617818301394  0.2805139426398782  0.4914080288301648
  0.7797361829786809  0.7149922640527535  0.5084451521710704
  0.2797377709657454  0.7808223681240491  0.4996905649543564
  0.7139997070151622  0.2144329549933133  0.5001978139796250
  0.0066004068112093  0.0067060972915698  0.7499467653983913
  0.4869829622075130  0.4884241468818402  0.7495638953234121
 
  0.00000000E+00  0.00000000E+00  0.00000000E+00
  0.00000000E+00  0.00000000E+00  0.00000000E+00
  0.00000000E+00  0.00000000E+00  0.00000000E+00
  0.00000000E+00  0.00000000E+00  0.00000000E+00
  0.00000000E+00  0.00000000E+00  0.00000000E+00
  0.00000000E+00  0.00000000E+00  0.00000000E+00
  0.00000000E+00  0.00000000E+00  0.00000000E+00
  0.00000000E+00  0.00000000E+00  0.00000000E+00
  0.00000000E+00  0.00000000E+00  0.00000000E+00
  0.00000000E+00  0.00000000E+00  0.00000000E+00
  0.00000000E+00  0.00000000E+00  0.00000000E+00
  0.00000000E+00  0.00000000E+00  0.00000000E+00
  0.00000000E+00  0.00000000E+00  0.00000000E+00
  0.00000000E+00  0.00000000E+00  0.00000000E+00
  0.00000000E+00  0.00000000E+00  0.00000000E+00
  0.00000000E+00  0.00000000E+00  0.00000000E+00
  0.00000000E+00  0.00000000E+00  0.00000000E+00
  0.00000000E+00  0.00000000E+00  0.00000000E+00
  0.00000000E+00  0.00000000E+00  0.00000000E+00
  0.00000000E+00  0.00000000E+00  0.00000000E+00
